42 60
1 3 2
4 4 1
9 6 1
9 9 1
8 5 1
7 10 1
7 1 2
4 3 1
6 9 3
9 5 1
5 4 3
5 2 2
6 4 2
5 1 1
2 8 1
5 10 1
6 6 1
10 8 1
6 1 3
7 6 1
8 3 2
8 8 1
9 1 1
10 1 2
1 2 2
6 10 1
3 9 1
4 9 1
6 3 2
10 2 2
2 9 2
7 3 1
4 7 2
8 1 1
9 8 1
10 5 1
7 7 1
3 5 2
1 6 1
5 6 1
8 4 1
5 8 1
30 30 
30 30 
30 30 
30 30 
30 30 
30 30 
30 30 
30 30 
30 30 
30 30 
30 30 
30 30 
30 30 
30 30 
30 30 
30 30 
30 30 
30 30 
30 30 
30 30 
30 30 
30 30 
30 30 
30 30 
30 30 
30 30 
30 30 
30 30 
30 30 
30 30 
30 30 
30 30 
30 30 
30 30 
30 30 
30 30 
30 30 
30 30 
30 30 
30 30 
30 30 
30 30 
30 30 
30 30 
30 30 
30 30 
30 30 
30 30 
30 30 
30 30 
30 30 
30 30 
30 30 
30 30 
30 30 
30 30 
30 30 
30 30 
30 30 
30 30 
